c This is the enc3 file generate by sty
p cnf 30 20
 -1 2 0
 -3 4 0
 -5 -6 -3 7 0
 -8 -9 -1 10 0
 -8 -9 -3 11 0
 -5 -6 -1 12 0
 -8 -6 -1 13 0
 -5 -9 -3 14 0
 -5 -9 -1 15 0
 -8 -6 -3 16 0
 -9 17 0
 -6 18 0
 -19 -8 20 0
 -21 -5 22 0
 -19 -5 23 0
 -21 -8 24 0
 -25 -8 26 0
 -27 -5 28 0
 -25 -5 29 0
 -27 -8 30 0
